
Gurobi 9.5.2 (mac64[x86], Python) logging started Fri Oct 21 00:31:49 2022

Set parameter Username
Set parameter LogFile to value "best-diff-new-future-4.log"
Academic license - for non-commercial use only - expires 2023-07-03
Read LP format model from file new_best_diff_future_4.lp
Reading time = 0.05 seconds
: 15621 rows, 896 columns, 115520 nonzeros
Gurobi Optimizer version 9.5.2 build v9.5.2rc0 (mac64[x86])
Thread count: 4 physical cores, 8 logical processors, using up to 8 threads
Optimize a model with 15621 rows, 896 columns and 115520 nonzeros
Model fingerprint: 0x4a9935f5
Variable types: 0 continuous, 896 integer (896 binary)
Coefficient statistics:
  Matrix range     [1e+00, 2e+01]
  Objective range  [2e+00, 4e+00]
  Bounds range     [1e+00, 1e+00]
  RHS range        [1e+00, 2e+01]
Presolve removed 290 rows and 224 columns
Presolve time: 0.29s
Presolved: 15331 rows, 672 columns, 114496 nonzeros
Variable types: 0 continuous, 672 integer (672 binary)

Root relaxation: objective 3.594550e+01, 5678 iterations, 1.18 seconds (3.53 work units)

    Nodes    |    Current Node    |     Objective Bounds      |     Work
 Expl Unexpl |  Obj  Depth IntInf | Incumbent    BestBd   Gap | It/Node Time

     0     0   35.94550    0  441          -   35.94550      -     -    2s
     0     0   36.55849    0  283          -   36.55849      -     -    3s
     0     0   36.63307    0  301          -   36.63307      -     -    4s
     0     0   36.82578    0  274          -   36.82578      -     -    4s
     0     0   36.87843    0  319          -   36.87843      -     -    5s
     0     0   36.87843    0  329          -   36.87843      -     -    5s
     0     0   36.87843    0  329          -   36.87843      -     -    5s
     0     0   37.62991    0  215          -   37.62991      -     -    5s
     0     0   38.03704    0  329          -   38.03704      -     -    6s
     0     0   38.14017    0  314          -   38.14017      -     -    6s
     0     0   38.14344    0  327          -   38.14344      -     -    6s
     0     0   38.14354    0  318          -   38.14354      -     -    6s
     0     0   38.92144    0  282          -   38.92144      -     -    6s
     0     0   39.14373    0  321          -   39.14373      -     -    7s
     0     0   39.16913    0  343          -   39.16913      -     -    7s
     0     0   39.17121    0  340          -   39.17121      -     -    7s
     0     0   39.17164    0  332          -   39.17164      -     -    7s
     0     0   39.17175    0  334          -   39.17175      -     -    7s
     0     0   39.31940    0  248          -   39.31940      -     -    7s
     0     0   39.34228    0  258          -   39.34228      -     -    7s
     0     0   39.36319    0  302          -   39.36319      -     -    7s
     0     0   39.36928    0  303          -   39.36928      -     -    7s
     0     0   39.36952    0  301          -   39.36952      -     -    7s
     0     0   39.75099    0  273          -   39.75099      -     -    8s
     0     0   39.78806    0  291          -   39.78806      -     -    8s
     0     0   39.79225    0  288          -   39.79225      -     -    8s
     0     0   39.79526    0  345          -   39.79526      -     -    8s
     0     0   39.79640    0  341          -   39.79640      -     -    8s
     0     0   39.79643    0  341          -   39.79643      -     -    8s
     0     0   39.98945    0  356          -   39.98945      -     -    9s
     0     0   39.99216    0  303          -   39.99216      -     -    9s
     0     0   39.99264    0  350          -   39.99264      -     -    9s
     0     0   40.08574    0  296          -   40.08574      -     -    9s
     0     0   40.08933    0  293          -   40.08933      -     -    9s
     0     0   40.08977    0  311          -   40.08977      -     -    9s
     0     0   40.43955    0  259          -   40.43955      -     -   10s
     0     0   40.45946    0  344          -   40.45946      -     -   10s
     0     0   40.46391    0  317          -   40.46391      -     -   10s
     0     0   40.46442    0  333          -   40.46442      -     -   10s
     0     0   40.69078    0  282          -   40.69078      -     -   10s
     0     0   40.70610    0  303          -   40.70610      -     -   10s
     0     0   40.71077    0  297          -   40.71077      -     -   10s
     0     0   41.09172    0  324          -   41.09172      -     -   11s
     0     0   41.13087    0  319          -   41.13087      -     -   11s
     0     0   41.18452    0  319          -   41.18452      -     -   11s
     0     0   41.18860    0  311          -   41.18860      -     -   11s
     0     0   41.18895    0  319          -   41.18895      -     -   11s
     0     0   41.51957    0  294          -   41.51957      -     -   12s
     0     0   41.60245    0  268          -   41.60245      -     -   12s
     0     0   41.61322    0  281          -   41.61322      -     -   12s
     0     0   41.62037    0  283          -   41.62037      -     -   12s
     0     0   41.62239    0  285          -   41.62239      -     -   12s
     0     0   41.62246    0  285          -   41.62246      -     -   12s
     0     0   42.19180    0  325          -   42.19180      -     -   12s
     0     0   42.24884    0  315          -   42.24884      -     -   12s
     0     0   42.25772    0  332          -   42.25772      -     -   12s
     0     0   42.26705    0  335          -   42.26705      -     -   12s
     0     0   42.26856    0  336          -   42.26856      -     -   13s
     0     0   42.26858    0  337          -   42.26858      -     -   13s
     0     0   43.21362    0  298          -   43.21362      -     -   13s
     0     0   43.28327    0  314          -   43.28327      -     -   13s
     0     0   43.28800    0  317          -   43.28800      -     -   13s
     0     0   43.28820    0  315          -   43.28820      -     -   13s
     0     0   43.65716    0  266          -   43.65716      -     -   14s
     0     0   43.67013    0  269          -   43.67013      -     -   14s
     0     0   43.67467    0  271          -   43.67467      -     -   14s
     0     0   43.67493    0  272          -   43.67493      -     -   14s
     0     0   43.82511    0  265          -   43.82511      -     -   14s
     0     0   43.85465    0  263          -   43.85465      -     -   14s
     0     0   43.86295    0  270          -   43.86295      -     -   14s
     0     0   43.86893    0  294          -   43.86893      -     -   14s
     0     0   43.86933    0  257          -   43.86933      -     -   14s
     0     0   43.93797    0  229          -   43.93797      -     -   15s
     0     0   43.94860    0  270          -   43.94860      -     -   15s
     0     0   43.94944    0  274          -   43.94944      -     -   15s
     0     0   44.58954    0  192          -   44.58954      -     -   15s
     0     0   44.63684    0  355          -   44.63684      -     -   15s
     0     0   44.63858    0  321          -   44.63858      -     -   15s
     0     0   44.63916    0  228          -   44.63916      -     -   15s
     0     0   44.78387    0  329          -   44.78387      -     -   16s
     0     0   44.81170    0  337          -   44.81170      -     -   16s
     0     0   44.81489    0  347          -   44.81489      -     -   16s
     0     0   44.81491    0  347          -   44.81491      -     -   16s
     0     0   45.04673    0  381          -   45.04673      -     -   16s
     0     0   45.05861    0  277          -   45.05861      -     -   16s
     0     0   45.05997    0  323          -   45.05997      -     -   16s
     0     0   45.06167    0  368          -   45.06167      -     -   16s
     0     0   45.06213    0  323          -   45.06213      -     -   16s
     0     0   45.54075    0  279          -   45.54075      -     -   17s
     0     0   45.55174    0  337          -   45.55174      -     -   17s
     0     0   45.55547    0  327          -   45.55547      -     -   17s
     0     0   45.55581    0  322          -   45.55581      -     -   17s
     0     0   47.52227    0  232          -   47.52227      -     -   17s
     0     0   47.53824    0  201          -   47.53824      -     -   17s
     0     0   47.53929    0  215          -   47.53929      -     -   17s
     0     0   47.53929    0  190          -   47.53929      -     -   18s
     0     0   47.56648    0  216          -   47.56648      -     -   18s
     0     0   47.57217    0  254          -   47.57217      -     -   18s
     0     0   47.58121    0  218          -   47.58121      -     -   18s
     0     0   47.58433    0  298          -   47.58433      -     -   18s
     0     0   47.58480    0  334          -   47.58480      -     -   18s
     0     0   47.58547    0  248          -   47.58547      -     -   18s
     0     0   47.58947    0  266          -   47.58947      -     -   18s
     0     0   47.59018    0  279          -   47.59018      -     -   18s
     0     0   47.59559    0  287          -   47.59559      -     -   19s
     0     0   47.59648    0  300          -   47.59648      -     -   19s
     0     0   47.62071    0  243          -   47.62071      -     -   19s
     0     0   47.62532    0  231          -   47.62532      -     -   19s
     0     0   47.62532    0  230          -   47.62532      -     -   19s
     0     0   47.63301    0  198          -   47.63301      -     -   19s
     0     0   47.63649    0  211          -   47.63649      -     -   20s
     0     0   47.65813    0  210          -   47.65813      -     -   20s
     0     0   47.65813    0  210          -   47.65813      -     -   20s
     0     0   48.59196    0  209          -   48.59196      -     -   20s
     0     0   48.59216    0  304          -   48.59216      -     -   20s
     0     0   48.59583    0  325          -   48.59583      -     -   20s
     0     0   48.59623    0  316          -   48.59623      -     -   20s
     0     0   48.60300    0  286          -   48.60300      -     -   21s
     0     0   48.60300    0  279          -   48.60300      -     -   21s
     0     2   48.60300    0  277          -   48.60300      -     -   24s
    44    51   48.68192   14   98          -   48.60994      -   167   25s
  1045   732   52.00000   27  279          -   48.61089      -  55.3   30s
  1047   733   50.67920   36  446          -   48.61089      -  55.2   38s
  1048   734   49.04455   10  193          -   49.04455      -  55.2   41s
  1050   735   50.00000   27  113          -   50.00000      -  55.1   46s
  1053   737   54.00000   46  173          -   50.00000      -  54.9   50s
  1057   740   50.00000   16   79          -   50.00000      -  54.7   55s
  1060   742   50.00000   14   50          -   50.00000      -  54.6   60s
H 1065   707                      94.0000000   50.00000  46.8%  54.3   63s
H 1070   676                      86.0000000   50.00000  41.9%  85.6   66s
H 1070   642                      72.0000000   50.00000  30.6%  85.6   66s
H 1070   610                      68.0000000   50.00000  26.5%  85.6   67s
  1073   612   50.00000   31   71   68.00000   50.00000  26.5%  85.4   70s
H 1073   581                      64.0000000   50.00000  21.9%  85.4   73s
H 1073   552                      62.0000000   50.00000  19.4%  85.4   73s
  1076   554   50.00000   16   78   62.00000   50.00000  19.4%  85.2   75s
  1079   556   50.03217   30   82   62.00000   50.00000  19.4%  84.9   80s
H 1081   529                      60.0000000   50.00000  16.7%  84.8   83s
H 1081   502                      58.0000000   50.00000  13.8%  84.8   83s
H 1083   478                      54.0000000   50.00000  7.41%  84.6   87s
H 1083   454                      52.0000000   50.00000  3.85%  84.6   87s
  1087   457   50.00000   36  203   52.00000   50.00000  3.85%  84.3   90s
H 1087   434                      50.0000000   50.00000  0.00%  84.3   92s

Cutting planes:
  Gomory: 9
  Cover: 55
  Clique: 85
  MIR: 33
  StrongCG: 5
  Flow cover: 144
  Zero half: 31
  RLT: 19

Explored 1087 nodes (150901 simplex iterations) in 92.42 seconds (137.80 work units)
Thread count was 8 (of 8 available processors)

Solution count 10: 50 52 54 ... 86

Optimal solution found (tolerance 1.00e-04)
Best objective 5.000000000000e+01, best bound 5.000000000000e+01, gap 0.0000%
